
Gurobi 6.0.5 (linux64) logging started Fri Oct 20 12:45:38 2017


Gurobi 6.0.5 (linux64) logging started Fri Oct 20 12:45:38 2017


Gurobi 6.0.5 (linux64) logging started Fri Oct 20 12:45:39 2017


Gurobi 6.0.5 (linux64) logging started Fri Oct 20 12:45:39 2017


Gurobi 6.0.5 (linux64) logging started Fri Oct 20 12:45:40 2017


Gurobi 6.0.5 (linux64) logging started Fri Oct 20 12:45:40 2017


Gurobi 6.0.5 (linux64) logging started Fri Oct 20 12:45:41 2017


Gurobi 6.0.5 (linux64) logging started Fri Oct 20 12:45:42 2017


Gurobi 6.0.5 (linux64) logging started Fri Oct 20 12:45:43 2017


Gurobi 6.0.5 (linux64) logging started Fri Oct 20 12:51:18 2017


Gurobi 6.0.5 (linux64) logging started Fri Oct 20 12:51:20 2017


Gurobi 6.0.5 (linux64) logging started Fri Oct 20 12:51:21 2017


Gurobi 6.0.5 (linux64) logging started Fri Oct 20 12:51:23 2017


Gurobi 6.0.5 (linux64) logging started Fri Oct 20 12:51:24 2017


Gurobi 6.0.5 (linux64) logging started Fri Oct 20 12:51:26 2017


Gurobi 6.0.5 (linux64) logging started Fri Oct 20 12:51:28 2017


Gurobi 6.0.5 (linux64) logging started Fri Oct 20 12:51:30 2017


Gurobi 6.0.5 (linux64) logging started Fri Oct 20 12:51:32 2017

